-471.0 4.0 9.0 10.0 8.0 4.0 4.0 7.0 10.0 2.0 3.0 0.0 9.0 0.0 2.0 8.0 2.0 2.0 2.0 4.0 2.0 8.0 1.0 9.0 10.0 8.0 4.0 10.0 2.0 4.0 2.0 7.0 10.0 10.0 7.0 4.0 0.0 1.0 3.0 5.0 0.0 9.0 5.0 3.0 2.0 4.0 4.0 5.0 1.0 7.0 5.0 1.0 6.0 1.0 7.0 5.0 0.0 4.0 10.0 4.0 6.0 3.0 0.0 1.0 0.0 9.0 2.0 8.0 0.0 6.0 9.0 2.0 10.0 6.0 8.0 8.0 10.0 6.0 5.0 4.0 3.0 5.0 7.0 10.0 10.0 10.0 0.0 10.0 10.0 0.0 6.0 4.0 6.0 2.0 5.0 
4.0 -492.0 4.0 4.0 1.0 1.0 8.0 5.0 10.0 7.0 7.0 1.0 6.0 6.0 1.0 1.0 2.0 2.0 7.0 10.0 8.0 5.0 10.0 2.0 9.0 8.0 4.0 9.0 10.0 10.0 4.0 6.0 5.0 1.0 2.0 6.0 1.0 7.0 9.0 9.0 10.0 6.0 3.0 4.0 8.0 8.0 7.0 10.0 9.0 8.0 10.0 4.0 3.0 9.0 6.0 4.0 6.0 8.0 2.0 10.0 5.0 6.0 6.0 7.0 4.0 5.0 6.0 3.0 6.0 2.0 7.0 3.0 6.0 1.0 3.0 7.0 8.0 4.0 4.0 1.0 4.0 7.0 7.0 2.0 4.0 2.0 6.0 10.0 6.0 3.0 0.0 0.0 0.0 0.0 0.0 
9.0 4.0 -446.0 3.0 0.0 3.0 5.0 6.0 5.0 8.0 6.0 5.0 8.0 6.0 1.0 4.0 4.0 2.0 1.0 6.0 0.0 7.0 3.0 6.0 5.0 10.0 4.0 1.0 10.0 3.0 5.0 7.0 7.0 7.0 8.0 0.0 7.0 1.0 7.0 9.0 4.0 3.0 3.0 0.0 2.0 8.0 0.0 5.0 5.0 0.0 6.0 6.0 1.0 4.0 2.0 2.0 0.0 6.0 3.0 9.0 7.0 4.0 2.0 8.0 3.0 8.0 5.0 6.0 3.0 9.0 8.0 4.0 6.0 1.0 6.0 3.0 8.0 6.0 5.0 9.0 10.0 5.0 8.0 5.0 2.0 10.0 9.0 6.0 1.0 3.0 3.0 1.0 9.0 0.0 1.0 
10.0 4.0 3.0 -424.0 10.0 1.0 0.0 6.0 4.0 10.0 5.0 2.0 3.0 8.0 8.0 0.0 0.0 5.0 6.0 2.0 2.0 3.0 5.0 0.0 9.0 1.0 5.0 3.0 8.0 0.0 0.0 9.0 4.0 2.0 4.0 0.0 8.0 2.0 9.0 3.0 7.0 9.0 8.0 3.0 2.0 3.0 1.0 1.0 2.0 2.0 2.0 5.0 0.0 3.0 0.0 10.0 5.0 0.0 2.0 2.0 2.0 8.0 1.0 5.0 5.0 10.0 3.0 3.0 10.0 8.0 9.0 7.0 10.0 6.0 9.0 5.0 8.0 4.0 2.0 2.0 8.0 0.0 8.0 6.0 4.0 4.0 1.0 9.0 3.0 5.0 6.0 1.0 5.0 6.0 10.0 
8.0 1.0 0.0 10.0 -484.0 5.0 8.0 3.0 8.0 7.0 7.0 10.0 1.0 5.0 8.0 6.0 5.0 4.0 10.0 0.0 3.0 0.0 4.0 8.0 8.0 3.0 2.0 7.0 7.0 8.0 7.0 5.0 9.0 7.0 4.0 4.0 9.0 3.0 1.0 8.0 6.0 9.0 4.0 8.0 8.0 4.0 1.0 8.0 9.0 7.0 0.0 6.0 7.0 6.0 6.0 10.0 7.0 4.0 8.0 6.0 7.0 3.0 0.0 10.0 7.0 4.0 7.0 8.0 1.0 10.0 8.0 0.0 8.0 0.0 5.0 4.0 4.0 0.0 0.0 1.0 5.0 6.0 6.0 1.0 0.0 3.0 2.0 0.0 5.0 1.0 8.0 10.0 4.0 0.0 9.0 
4.0 1.0 3.0 1.0 5.0 -466.0 8.0 0.0 9.0 8.0 3.0 1.0 4.0 5.0 0.0 6.0 2.0 8.0 2.0 9.0 3.0 4.0 9.0 10.0 8.0 4.0 4.0 4.0 10.0 2.0 6.0 1.0 8.0 6.0 1.0 2.0 9.0 3.0 10.0 0.0 5.0 4.0 4.0 1.0 9.0 2.0 3.0 3.0 8.0 3.0 1.0 8.0 5.0 4.0 8.0 7.0 3.0 3.0 8.0 1.0 2.0 2.0 6.0 10.0 3.0 9.0 4.0 6.0 3.0 7.0 6.0 6.0 1.0 10.0 6.0 8.0 4.0 7.0 0.0 10.0 7.0 8.0 9.0 1.0 6.0 6.0 8.0 2.0 3.0 4.0 10.0 9.0 4.0 0.0 6.0 
4.0 8.0 5.0 0.0 8.0 8.0 -423.0 6.0 4.0 0.0 10.0 1.0 3.0 1.0 5.0 9.0 10.0 9.0 7.0 4.0 5.0 5.0 3.0 9.0 0.0 6.0 3.0 9.0 6.0 1.0 8.0 3.0 10.0 3.0 2.0 3.0 0.0 7.0 3.0 4.0 0.0 1.0 6.0 4.0 5.0 3.0 3.0 3.0 8.0 7.0 5.0 4.0 4.0 10.0 1.0 6.0 6.0 1.0 1.0 2.0 0.0 0.0 9.0 0.0 1.0 3.0 10.0 0.0 1.0 10.0 6.0 8.0 2.0 0.0 10.0 3.0 1.0 6.0 1.0 1.0 10.0 2.0 4.0 8.0 5.0 7.0 8.0 5.0 9.0 6.0 1.0 10.0 0.0 1.0 3.0 
7.0 5.0 6.0 6.0 3.0 0.0 6.0 -416.0 9.0 0.0 9.0 0.0 0.0 2.0 2.0 7.0 0.0 3.0 5.0 0.0 1.0 2.0 8.0 6.0 2.0 10.0 10.0 3.0 6.0 4.0 1.0 5.0 3.0 0.0 9.0 6.0 5.0 8.0 1.0 4.0 2.0 3.0 7.0 3.0 3.0 8.0 5.0 2.0 6.0 6.0 4.0 3.0 4.0 2.0 8.0 8.0 8.0 9.0 3.0 7.0 5.0 1.0 8.0 10.0 0.0 8.0 6.0 3.0 2.0 2.0 2.0 2.0 0.0 1.0 2.0 9.0 1.0 7.0 6.0 9.0 0.0 10.0 1.0 1.0 2.0 8.0 7.0 9.0 1.0 1.0 3.0 4.0 7.0 3.0 10.0 
10.0 10.0 5.0 4.0 8.0 9.0 4.0 9.0 -507.0 8.0 5.0 8.0 3.0 5.0 5.0 10.0 10.0 7.0 10.0 1.0 0.0 0.0 2.0 10.0 1.0 3.0 10.0 6.0 4.0 0.0 6.0 8.0 10.0 2.0 10.0 10.0 3.0 5.0 9.0 7.0 5.0 10.0 2.0 3.0 10.0 4.0 1.0 7.0 3.0 2.0 0.0 7.0 3.0 5.0 8.0 1.0 2.0 8.0 3.0 6.0 9.0 0.0 7.0 10.0 4.0 0.0 0.0 4.0 2.0 7.0 5.0 2.0 0.0 10.0 3.0 2.0 1.0 10.0 3.0 8.0 8.0 10.0 5.0 9.0 4.0 10.0 7.0 10.0 8.0 8.0 0.0 6.0 1.0 2.0 5.0 
2.0 7.0 8.0 10.0 7.0 8.0 0.0 0.0 8.0 -428.0 5.0 6.0 6.0 2.0 0.0 0.0 3.0 4.0 0.0 0.0 5.0 8.0 5.0 0.0 10.0 3.0 3.0 5.0 0.0 8.0 3.0 0.0 0.0 6.0 0.0 6.0 5.0 5.0 10.0 3.0 5.0 5.0 4.0 1.0 5.0 0.0 10.0 5.0 1.0 0.0 6.0 10.0 4.0 4.0 5.0 6.0 4.0 1.0 5.0 3.0 10.0 0.0 5.0 5.0 0.0 2.0 7.0 2.0 8.0 2.0 0.0 10.0 7.0 9.0 9.0 5.0 8.0 6.0 2.0 6.0 4.0 9.0 7.0 1.0 10.0 9.0 4.0 10.0 4.0 6.0 9.0 0.0 0.0 3.0 4.0 
3.0 7.0 6.0 5.0 7.0 3.0 10.0 9.0 5.0 5.0 -504.0 7.0 9.0 10.0 7.0 6.0 10.0 2.0 2.0 0.0 4.0 5.0 3.0 7.0 1.0 2.0 9.0 6.0 5.0 5.0 3.0 8.0 0.0 8.0 6.0 10.0 8.0 2.0 1.0 2.0 0.0 6.0 7.0 8.0 9.0 0.0 10.0 7.0 9.0 0.0 4.0 6.0 8.0 6.0 5.0 9.0 1.0 1.0 9.0 4.0 5.0 4.0 6.0 3.0 10.0 9.0 10.0 2.0 8.0 9.0 1.0 5.0 5.0 8.0 3.0 3.0 6.0 0.0 0.0 4.0 6.0 4.0 7.0 7.0 8.0 7.0 10.0 8.0 6.0 7.0 1.0 3.0 6.0 2.0 4.0 
0.0 1.0 5.0 2.0 10.0 1.0 1.0 0.0 8.0 6.0 7.0 -473.0 8.0 9.0 2.0 7.0 4.0 8.0 5.0 5.0 6.0 4.0 8.0 8.0 6.0 4.0 10.0 10.0 8.0 1.0 8.0 2.0 10.0 1.0 1.0 5.0 5.0 8.0 0.0 0.0 6.0 6.0 1.0 1.0 2.0 2.0 4.0 10.0 8.0 8.0 6.0 0.0 10.0 7.0 6.0 3.0 2.0 5.0 0.0 4.0 0.0 8.0 2.0 0.0 10.0 3.0 9.0 3.0 9.0 1.0 6.0 6.0 5.0 0.0 10.0 8.0 2.0 10.0 4.0 5.0 10.0 4.0 10.0 10.0 10.0 9.0 3.0 7.0 3.0 0.0 9.0 4.0 7.0 1.0 0.0 
9.0 6.0 8.0 3.0 1.0 4.0 3.0 0.0 3.0 6.0 9.0 8.0 -469.0 2.0 2.0 1.0 10.0 3.0 9.0 2.0 2.0 1.0 6.0 5.0 4.0 9.0 3.0 1.0 0.0 9.0 8.0 6.0 3.0 2.0 10.0 1.0 0.0 0.0 2.0 5.0 6.0 0.0 6.0 5.0 9.0 5.0 1.0 5.0 4.0 9.0 6.0 10.0 0.0 9.0 0.0 0.0 6.0 6.0 10.0 10.0 7.0 4.0 10.0 4.0 10.0 6.0 3.0 10.0 6.0 8.0 9.0 0.0 7.0 8.0 3.0 0.0 5.0 2.0 5.0 8.0 6.0 7.0 0.0 7.0 9.0 9.0 10.0 0.0 3.0 6.0 0.0 10.0 5.0 6.0 3.0 
0.0 6.0 6.0 8.0 5.0 5.0 1.0 2.0 5.0 2.0 10.0 9.0 2.0 -476.0 10.0 6.0 2.0 6.0 4.0 10.0 6.0 7.0 3.0 10.0 1.0 6.0 7.0 5.0 6.0 3.0 2.0 4.0 5.0 8.0 9.0 8.0 9.0 1.0 5.0 6.0 3.0 2.0 1.0 3.0 0.0 8.0 4.0 10.0 3.0 7.0 5.0 4.0 1.0 2.0 8.0 3.0 2.0 4.0 4.0 4.0 9.0 10.0 8.0 4.0 8.0 2.0 4.0 8.0 9.0 5.0 2.0 8.0 6.0 7.0 0.0 4.0 8.0 9.0 6.0 10.0 6.0 3.0 0.0 1.0 0.0 2.0 4.0 7.0 2.0 2.0 10.0 4.0 8.0 7.0 5.0 
2.0 1.0 1.0 8.0 8.0 0.0 5.0 2.0 5.0 0.0 7.0 2.0 2.0 10.0 -466.0 9.0 3.0 9.0 0.0 9.0 1.0 5.0 7.0 4.0 9.0 6.0 10.0 0.0 1.0 0.0 9.0 4.0 10.0 2.0 9.0 6.0 9.0 0.0 7.0 0.0 4.0 7.0 7.0 9.0 9.0 3.0 1.0 2.0 1.0 8.0 5.0 6.0 9.0 9.0 7.0 3.0 10.0 9.0 3.0 10.0 3.0 7.0 4.0 3.0 3.0 2.0 4.0 8.0 9.0 6.0 0.0 4.0 10.0 8.0 8.0 2.0 3.0 2.0 10.0 7.0 7.0 7.0 0.0 0.0 10.0 4.0 6.0 1.0 0.0 5.0 2.0 2.0 8.0 2.0 5.0 
8.0 1.0 4.0 0.0 6.0 6.0 9.0 7.0 10.0 0.0 6.0 7.0 1.0 6.0 9.0 -536.0 9.0 5.0 9.0 2.0 5.0 0.0 3.0 10.0 5.0 10.0 8.0 6.0 0.0 5.0 3.0 10.0 4.0 4.0 2.0 3.0 8.0 10.0 8.0 2.0 9.0 3.0 2.0 3.0 2.0 5.0 10.0 8.0 2.0 4.0 8.0 3.0 9.0 4.0 5.0 9.0 9.0 5.0 3.0 6.0 9.0 10.0 7.0 6.0 7.0 6.0 3.0 5.0 10.0 4.0 0.0 4.0 3.0 10.0 3.0 1.0 9.0 6.0 10.0 10.0 10.0 5.0 9.0 8.0 1.0 2.0 9.0 1.0 6.0 9.0 10.0 9.0 2.0 4.0 8.0 
2.0 2.0 4.0 0.0 5.0 2.0 10.0 0.0 10.0 3.0 10.0 4.0 10.0 2.0 3.0 9.0 -475.0 10.0 4.0 5.0 2.0 2.0 8.0 0.0 8.0 8.0 2.0 5.0 6.0 8.0 5.0 6.0 9.0 0.0 2.0 1.0 5.0 1.0 6.0 3.0 4.0 0.0 5.0 1.0 1.0 6.0 6.0 10.0 5.0 9.0 0.0 9.0 1.0 5.0 4.0 3.0 2.0 10.0 9.0 10.0 10.0 10.0 10.0 0.0 10.0 10.0 7.0 9.0 3.0 0.0 6.0 5.0 6.0 2.0 2.0 7.0 6.0 6.0 9.0 3.0 8.0 9.0 4.0 7.0 10.0 0.0 3.0 2.0 9.0 9.0 2.0 5.0 2.0 2.0 0.0 
2.0 2.0 2.0 5.0 4.0 8.0 9.0 3.0 7.0 4.0 2.0 8.0 3.0 6.0 9.0 5.0 10.0 -461.0 1.0 10.0 0.0 3.0 4.0 6.0 1.0 9.0 2.0 9.0 3.0 1.0 6.0 7.0 0.0 9.0 5.0 1.0 9.0 5.0 3.0 3.0 9.0 4.0 1.0 0.0 6.0 5.0 9.0 2.0 3.0 3.0 4.0 0.0 6.0 9.0 4.0 6.0 4.0 0.0 3.0 0.0 7.0 6.0 4.0 3.0 9.0 4.0 9.0 4.0 3.0 6.0 1.0 9.0 5.0 4.0 9.0 6.0 2.0 8.0 8.0 4.0 7.0 7.0 4.0 10.0 7.0 1.0 2.0 3.0 4.0 7.0 5.0 10.0 7.0 10.0 2.0 
2.0 7.0 1.0 6.0 10.0 2.0 7.0 5.0 10.0 0.0 2.0 5.0 9.0 4.0 0.0 9.0 4.0 1.0 -433.0 9.0 1.0 10.0 7.0 7.0 1.0 7.0 6.0 7.0 4.0 6.0 10.0 10.0 2.0 3.0 1.0 0.0 0.0 3.0 0.0 1.0 3.0 3.0 3.0 6.0 5.0 10.0 0.0 7.0 2.0 0.0 5.0 5.0 4.0 6.0 4.0 4.0 2.0 6.0 2.0 5.0 1.0 3.0 7.0 8.0 4.0 1.0 3.0 7.0 5.0 5.0 6.0 6.0 5.0 9.0 6.0 0.0 6.0 7.0 7.0 4.0 5.0 10.0 3.0 1.0 6.0 6.0 6.0 10.0 1.0 1.0 0.0 9.0 5.0 5.0 4.0 
4.0 10.0 6.0 2.0 0.0 9.0 4.0 0.0 1.0 0.0 0.0 5.0 2.0 10.0 9.0 2.0 5.0 10.0 9.0 -462.0 3.0 0.0 8.0 4.0 3.0 1.0 9.0 2.0 8.0 9.0 3.0 1.0 5.0 3.0 1.0 0.0 10.0 0.0 3.0 7.0 0.0 4.0 4.0 9.0 7.0 9.0 5.0 2.0 7.0 8.0 3.0 10.0 1.0 5.0 10.0 1.0 6.0 0.0 6.0 6.0 1.0 7.0 2.0 2.0 1.0 2.0 1.0 0.0 9.0 8.0 6.0 10.0 8.0 3.0 7.0 8.0 10.0 9.0 1.0 10.0 7.0 6.0 1.0 9.0 2.0 5.0 10.0 10.0 8.0 5.0 9.0 4.0 0.0 10.0 0.0 
2.0 8.0 0.0 2.0 3.0 3.0 5.0 1.0 0.0 5.0 4.0 6.0 2.0 6.0 1.0 5.0 2.0 0.0 1.0 3.0 -402.0 6.0 6.0 2.0 1.0 0.0 3.0 6.0 7.0 7.0 9.0 10.0 5.0 6.0 4.0 3.0 0.0 6.0 2.0 7.0 1.0 10.0 3.0 9.0 9.0 2.0 10.0 1.0 0.0 7.0 2.0 1.0 3.0 4.0 4.0 10.0 2.0 5.0 4.0 10.0 8.0 8.0 8.0 0.0 10.0 9.0 4.0 9.0 9.0 7.0 0.0 0.0 2.0 1.0 3.0 1.0 6.0 0.0 5.0 10.0 9.0 0.0 1.0 6.0 0.0 5.0 3.0 0.0 6.0 6.0 1.0 0.0 3.0 7.0 9.0 
8.0 5.0 7.0 3.0 0.0 4.0 5.0 2.0 0.0 8.0 5.0 4.0 1.0 7.0 5.0 0.0 2.0 3.0 10.0 0.0 6.0 -445.0 6.0 6.0 4.0 1.0 6.0 1.0 2.0 8.0 2.0 3.0 5.0 5.0 7.0 7.0 1.0 4.0 9.0 10.0 6.0 3.0 6.0 5.0 5.0 8.0 0.0 3.0 5.0 5.0 5.0 0.0 8.0 3.0 5.0 4.0 10.0 7.0 4.0 1.0 1.0 2.0 7.0 8.0 10.0 0.0 10.0 2.0 10.0 0.0 3.0 8.0 4.0 10.0 3.0 8.0 9.0 2.0 5.0 10.0 1.0 6.0 7.0 0.0 3.0 1.0 4.0 9.0 1.0 6.0 7.0 8.0 7.0 0.0 8.0 
1.0 10.0 3.0 5.0 4.0 9.0 3.0 8.0 2.0 5.0 3.0 8.0 6.0 3.0 7.0 3.0 8.0 4.0 7.0 8.0 6.0 6.0 -449.0 10.0 10.0 9.0 8.0 3.0 1.0 5.0 3.0 5.0 2.0 7.0 7.0 10.0 1.0 9.0 8.0 1.0 3.0 9.0 8.0 3.0 4.0 4.0 3.0 5.0 5.0 9.0 9.0 4.0 4.0 2.0 9.0 0.0 0.0 5.0 5.0 7.0 0.0 9.0 2.0 2.0 6.0 9.0 1.0 4.0 2.0 6.0 4.0 0.0 9.0 0.0 8.0 6.0 2.0 10.0 0.0 7.0 2.0 1.0 5.0 4.0 1.0 7.0 2.0 1.0 4.0 2.0 0.0 4.0 3.0 2.0 8.0 
9.0 2.0 6.0 0.0 8.0 10.0 9.0 6.0 10.0 0.0 7.0 8.0 5.0 10.0 4.0 10.0 0.0 6.0 7.0 4.0 2.0 6.0 10.0 -523.0 6.0 10.0 8.0 7.0 3.0 10.0 5.0 8.0 8.0 8.0 4.0 5.0 5.0 7.0 5.0 6.0 5.0 10.0 0.0 1.0 4.0 9.0 4.0 9.0 0.0 1.0 7.0 7.0 10.0 9.0 5.0 2.0 4.0 8.0 5.0 10.0 2.0 7.0 0.0 6.0 3.0 5.0 0.0 4.0 1.0 5.0 5.0 0.0 7.0 8.0 9.0 9.0 6.0 9.0 2.0 4.0 5.0 6.0 8.0 1.0 8.0 7.0 5.0 5.0 10.0 2.0 7.0 1.0 0.0 2.0 10.0 
10.0 9.0 5.0 9.0 8.0 8.0 0.0 2.0 1.0 10.0 1.0 6.0 4.0 1.0 9.0 5.0 8.0 1.0 1.0 3.0 1.0 4.0 10.0 6.0 -452.0 6.0 2.0 10.0 5.0 4.0 0.0 5.0 1.0 1.0 4.0 8.0 0.0 5.0 10.0 6.0 3.0 2.0 4.0 2.0 0.0 4.0 8.0 5.0 1.0 4.0 9.0 0.0 5.0 1.0 7.0 7.0 6.0 8.0 7.0 0.0 7.0 1.0 9.0 8.0 2.0 5.0 5.0 7.0 1.0 10.0 6.0 3.0 5.0 9.0 0.0 5.0 4.0 9.0 9.0 3.0 8.0 0.0 2.0 0.0 9.0 1.0 8.0 3.0 1.0 9.0 5.0 7.0 9.0 10.0 0.0 
8.0 8.0 10.0 1.0 3.0 4.0 6.0 10.0 3.0 3.0 2.0 4.0 9.0 6.0 6.0 10.0 8.0 9.0 7.0 1.0 0.0 1.0 9.0 10.0 6.0 -509.0 0.0 4.0 7.0 0.0 1.0 0.0 3.0 5.0 8.0 9.0 6.0 10.0 10.0 2.0 5.0 4.0 9.0 9.0 8.0 2.0 9.0 4.0 5.0 7.0 6.0 0.0 3.0 0.0 8.0 5.0 2.0 10.0 3.0 2.0 7.0 5.0 7.0 10.0 8.0 10.0 9.0 8.0 0.0 0.0 9.0 1.0 10.0 6.0 2.0 5.0 7.0 4.0 2.0 8.0 1.0 6.0 9.0 9.0 6.0 6.0 6.0 8.0 2.0 8.0 3.0 7.0 0.0 0.0 10.0 
4.0 4.0 4.0 5.0 2.0 4.0 3.0 10.0 10.0 3.0 9.0 10.0 3.0 7.0 10.0 8.0 2.0 2.0 6.0 9.0 3.0 6.0 8.0 8.0 2.0 0.0 -501.0 4.0 0.0 6.0 4.0 9.0 8.0 3.0 9.0 3.0 6.0 9.0 8.0 2.0 9.0 2.0 8.0 1.0 8.0 4.0 4.0 7.0 2.0 1.0 1.0 10.0 6.0 9.0 1.0 7.0 7.0 0.0 8.0 3.0 10.0 3.0 4.0 3.0 9.0 9.0 9.0 10.0 6.0 6.0 2.0 10.0 9.0 0.0 6.0 9.0 5.0 5.0 0.0 3.0 0.0 6.0 6.0 9.0 9.0 7.0 3.0 8.0 3.0 6.0 2.0 0.0 6.0 0.0 7.0 
10.0 9.0 1.0 3.0 7.0 4.0 9.0 3.0 6.0 5.0 6.0 10.0 1.0 5.0 0.0 6.0 5.0 9.0 7.0 2.0 6.0 1.0 3.0 7.0 10.0 4.0 4.0 -494.0 5.0 10.0 5.0 6.0 9.0 3.0 2.0 10.0 3.0 2.0 2.0 6.0 7.0 8.0 8.0 5.0 7.0 9.0 3.0 4.0 2.0 4.0 8.0 3.0 3.0 4.0 6.0 6.0 2.0 6.0 6.0 7.0 4.0 4.0 3.0 6.0 0.0 4.0 2.0 3.0 0.0 7.0 9.0 0.0 5.0 2.0 7.0 7.0 10.0 5.0 4.0 1.0 2.0 4.0 8.0 9.0 3.0 10.0 7.0 2.0 7.0 10.0 10.0 7.0 5.0 6.0 7.0 
2.0 10.0 10.0 8.0 7.0 10.0 6.0 6.0 4.0 0.0 5.0 8.0 0.0 6.0 1.0 0.0 6.0 3.0 4.0 8.0 7.0 2.0 1.0 3.0 5.0 7.0 0.0 5.0 -419.0 2.0 6.0 3.0 10.0 1.0 2.0 4.0 5.0 1.0 6.0 6.0 4.0 3.0 4.0 10.0 0.0 8.0 1.0 3.0 8.0 9.0 0.0 1.0 8.0 0.0 3.0 1.0 0.0 6.0 5.0 3.0 4.0 3.0 4.0 10.0 3.0 1.0 0.0 6.0 9.0 4.0 5.0 6.0 10.0 5.0 3.0 9.0 4.0 10.0 4.0 5.0 0.0 9.0 0.0 5.0 6.0 2.0 10.0 4.0 0.0 2.0 0.0 6.0 3.0 2.0 8.0 
4.0 10.0 3.0 0.0 8.0 2.0 1.0 4.0 0.0 8.0 5.0 1.0 9.0 3.0 0.0 5.0 8.0 1.0 6.0 9.0 7.0 8.0 5.0 10.0 4.0 0.0 6.0 10.0 2.0 -456.0 1.0 6.0 6.0 3.0 9.0 2.0 10.0 4.0 1.0 9.0 8.0 4.0 3.0 0.0 10.0 8.0 6.0 0.0 8.0 8.0 1.0 1.0 4.0 4.0 8.0 8.0 6.0 1.0 1.0 8.0 9.0 7.0 9.0 10.0 8.0 4.0 2.0 0.0 2.0 0.0 2.0 3.0 6.0 2.0 10.0 10.0 0.0 1.0 4.0 5.0 7.0 8.0 4.0 7.0 4.0 5.0 6.0 1.0 1.0 6.0 7.0 5.0 3.0 7.0 4.0 
2.0 4.0 5.0 0.0 7.0 6.0 8.0 1.0 6.0 3.0 3.0 8.0 8.0 2.0 9.0 3.0 5.0 6.0 10.0 3.0 9.0 2.0 3.0 5.0 0.0 1.0 4.0 5.0 6.0 1.0 -485.0 0.0 9.0 10.0 9.0 7.0 1.0 3.0 3.0 9.0 0.0 8.0 7.0 10.0 5.0 9.0 0.0 10.0 0.0 4.0 3.0 9.0 6.0 5.0 5.0 8.0 3.0 7.0 3.0 1.0 10.0 10.0 8.0 0.0 3.0 9.0 9.0 2.0 2.0 8.0 9.0 0.0 9.0 2.0 5.0 7.0 4.0 6.0 6.0 8.0 2.0 9.0 3.0 1.0 3.0 2.0 10.0 5.0 3.0 9.0 10.0 5.0 5.0 5.0 7.0 
7.0 6.0 7.0 9.0 5.0 1.0 3.0 5.0 8.0 0.0 8.0 2.0 6.0 4.0 4.0 10.0 6.0 7.0 10.0 1.0 10.0 3.0 5.0 8.0 5.0 0.0 9.0 6.0 3.0 6.0 0.0 -430.0 0.0 2.0 4.0 0.0 4.0 8.0 4.0 8.0 7.0 7.0 0.0 5.0 7.0 7.0 6.0 8.0 6.0 0.0 0.0 0.0 2.0 10.0 2.0 2.0 7.0 0.0 8.0 3.0 3.0 9.0 1.0 2.0 0.0 7.0 4.0 5.0 4.0 2.0 5.0 9.0 7.0 9.0 0.0 10.0 4.0 0.0 1.0 3.0 7.0 4.0 0.0 4.0 8.0 7.0 0.0 5.0 4.0 6.0 5.0 8.0 2.0 1.0 3.0 
10.0 5.0 7.0 4.0 9.0 8.0 10.0 3.0 10.0 0.0 0.0 10.0 3.0 5.0 10.0 4.0 9.0 0.0 2.0 5.0 5.0 5.0 2.0 8.0 1.0 3.0 8.0 9.0 10.0 6.0 9.0 0.0 -474.0 1.0 1.0 4.0 10.0 1.0 10.0 10.0 1.0 6.0 0.0 6.0 1.0 6.0 4.0 3.0 10.0 1.0 3.0 0.0 6.0 4.0 10.0 0.0 9.0 3.0 9.0 6.0 0.0 10.0 6.0 9.0 9.0 2.0 3.0 5.0 4.0 1.0 1.0 6.0 3.0 9.0 7.0 1.0 0.0 9.0 3.0 8.0 10.0 4.0 4.0 6.0 2.0 0.0 8.0 0.0 6.0 5.0 3.0 9.0 8.0 2.0 6.0 
10.0 1.0 7.0 2.0 7.0 6.0 3.0 0.0 2.0 6.0 8.0 1.0 2.0 8.0 2.0 4.0 0.0 9.0 3.0 3.0 6.0 5.0 7.0 8.0 1.0 5.0 3.0 3.0 1.0 3.0 10.0 2.0 1.0 -461.0 5.0 2.0 1.0 6.0 3.0 7.0 7.0 3.0 2.0 1.0 3.0 7.0 4.0 4.0 10.0 10.0 9.0 5.0 10.0 6.0 3.0 2.0 7.0 6.0 5.0 9.0 10.0 6.0 0.0 9.0 1.0 2.0 7.0 8.0 4.0 5.0 6.0 1.0 0.0 2.0 8.0 2.0 9.0 1.0 8.0 5.0 10.0 6.0 1.0 6.0 6.0 2.0 0.0 8.0 9.0 7.0 9.0 10.0 10.0 5.0 2.0 
7.0 2.0 8.0 4.0 4.0 1.0 2.0 9.0 10.0 0.0 6.0 1.0 10.0 9.0 9.0 2.0 2.0 5.0 1.0 1.0 4.0 7.0 7.0 4.0 4.0 8.0 9.0 2.0 2.0 9.0 9.0 4.0 1.0 5.0 -489.0 6.0 5.0 9.0 0.0 7.0 4.0 6.0 7.0 5.0 10.0 10.0 5.0 7.0 0.0 7.0 9.0 10.0 3.0 5.0 6.0 1.0 9.0 8.0 4.0 3.0 1.0 7.0 10.0 3.0 7.0 3.0 9.0 9.0 4.0 4.0 0.0 7.0 9.0 0.0 7.0 1.0 3.0 7.0 2.0 4.0 7.0 0.0 7.0 6.0 7.0 3.0 6.0 7.0 8.0 5.0 6.0 0.0 5.0 6.0 5.0 
4.0 6.0 0.0 0.0 4.0 2.0 3.0 6.0 10.0 6.0 10.0 5.0 1.0 8.0 6.0 3.0 1.0 1.0 0.0 0.0 3.0 7.0 10.0 5.0 8.0 9.0 3.0 10.0 4.0 2.0 7.0 0.0 4.0 2.0 6.0 -418.0 2.0 0.0 10.0 0.0 2.0 6.0 5.0 2.0 0.0 9.0 3.0 0.0 6.0 1.0 3.0 3.0 1.0 7.0 1.0 8.0 3.0 1.0 7.0 9.0 5.0 2.0 0.0 2.0 9.0 5.0 0.0 5.0 10.0 6.0 5.0 1.0 6.0 2.0 9.0 9.0 9.0 6.0 4.0 4.0 2.0 6.0 10.0 6.0 7.0 3.0 5.0 9.0 2.0 2.0 2.0 4.0 2.0 10.0 4.0 
0.0 1.0 7.0 8.0 9.0 9.0 0.0 5.0 3.0 5.0 8.0 5.0 0.0 9.0 9.0 8.0 5.0 9.0 0.0 10.0 0.0 1.0 1.0 5.0 0.0 6.0 6.0 3.0 5.0 10.0 1.0 4.0 10.0 1.0 5.0 2.0 -463.0 8.0 5.0 6.0 10.0 7.0 0.0 0.0 1.0 0.0 2.0 6.0 9.0 4.0 6.0 9.0 3.0 1.0 8.0 7.0 7.0 6.0 2.0 4.0 0.0 6.0 4.0 2.0 7.0 6.0 0.0 8.0 7.0 8.0 6.0 10.0 8.0 0.0 5.0 7.0 3.0 8.0 9.0 6.0 9.0 8.0 2.0 5.0 0.0 1.0 1.0 2.0 0.0 5.0 9.0 8.0 10.0 4.0 8.0 
1.0 7.0 1.0 2.0 3.0 3.0 7.0 8.0 5.0 5.0 2.0 8.0 0.0 1.0 0.0 10.0 1.0 5.0 3.0 0.0 6.0 4.0 9.0 7.0 5.0 10.0 9.0 2.0 1.0 4.0 3.0 8.0 1.0 6.0 9.0 0.0 8.0 -464.0 6.0 3.0 0.0 10.0 5.0 0.0 2.0 6.0 0.0 10.0 9.0 4.0 8.0 2.0 7.0 3.0 9.0 9.0 5.0 2.0 1.0 4.0 3.0 6.0 1.0 1.0 4.0 0.0 9.0 5.0 6.0 10.0 9.0 2.0 7.0 7.0 1.0 7.0 9.0 2.0 9.0 7.0 7.0 2.0 9.0 8.0 6.0 4.0 7.0 9.0 1.0 5.0 4.0 9.0 9.0 4.0 6.0 
3.0 9.0 7.0 9.0 1.0 10.0 3.0 1.0 9.0 10.0 1.0 0.0 2.0 5.0 7.0 8.0 6.0 3.0 0.0 3.0 2.0 9.0 8.0 5.0 10.0 10.0 8.0 2.0 6.0 1.0 3.0 4.0 10.0 3.0 0.0 10.0 5.0 6.0 -444.0 1.0 4.0 1.0 0.0 1.0 0.0 10.0 2.0 1.0 5.0 6.0 1.0 1.0 2.0 9.0 7.0 1.0 0.0 4.0 7.0 9.0 7.0 2.0 5.0 1.0 0.0 3.0 0.0 2.0 2.0 4.0 9.0 8.0 8.0 8.0 2.0 6.0 3.0 8.0 4.0 3.0 3.0 7.0 9.0 7.0 5.0 7.0 7.0 10.0 4.0 6.0 9.0 4.0 6.0 4.0 0.0 
5.0 9.0 9.0 3.0 8.0 0.0 4.0 4.0 7.0 3.0 2.0 0.0 5.0 6.0 0.0 2.0 3.0 3.0 1.0 7.0 7.0 10.0 1.0 6.0 6.0 2.0 2.0 6.0 6.0 9.0 9.0 8.0 10.0 7.0 7.0 0.0 6.0 3.0 1.0 -454.0 8.0 5.0 10.0 1.0 9.0 1.0 7.0 0.0 3.0 4.0 4.0 6.0 1.0 6.0 9.0 6.0 1.0 3.0 5.0 5.0 7.0 0.0 3.0 10.0 4.0 0.0 7.0 7.0 0.0 5.0 9.0 10.0 8.0 7.0 5.0 1.0 1.0 8.0 8.0 6.0 0.0 2.0 7.0 8.0 7.0 3.0 1.0 2.0 8.0 4.0 4.0 5.0 0.0 10.0 6.0 
0.0 10.0 4.0 7.0 6.0 5.0 0.0 2.0 5.0 5.0 0.0 6.0 6.0 3.0 4.0 9.0 4.0 9.0 3.0 0.0 1.0 6.0 3.0 5.0 3.0 5.0 9.0 7.0 4.0 8.0 0.0 7.0 1.0 7.0 4.0 2.0 10.0 0.0 4.0 8.0 -439.0 3.0 1.0 0.0 0.0 8.0 2.0 0.0 4.0 10.0 2.0 5.0 6.0 6.0 0.0 3.0 7.0 4.0 3.0 7.0 5.0 8.0 8.0 3.0 2.0 4.0 5.0 4.0 2.0 4.0 2.0 9.0 6.0 9.0 8.0 4.0 4.0 9.0 3.0 4.0 4.0 10.0 2.0 1.0 6.0 6.0 5.0 9.0 3.0 9.0 7.0 2.0 6.0 7.0 6.0 
9.0 6.0 3.0 9.0 9.0 4.0 1.0 3.0 10.0 5.0 6.0 6.0 0.0 2.0 7.0 3.0 0.0 4.0 3.0 4.0 10.0 3.0 9.0 10.0 2.0 4.0 2.0 8.0 3.0 4.0 8.0 7.0 6.0 3.0 6.0 6.0 7.0 10.0 1.0 5.0 3.0 -508.0 10.0 2.0 10.0 4.0 9.0 4.0 4.0 6.0 10.0 1.0 5.0 7.0 4.0 4.0 0.0 5.0 10.0 5.0 4.0 6.0 3.0 1.0 6.0 4.0 9.0 9.0 7.0 9.0 6.0 4.0 5.0 6.0 0.0 9.0 9.0 6.0 1.0 7.0 5.0 9.0 7.0 10.0 8.0 4.0 9.0 9.0 1.0 4.0 1.0 0.0 6.0 4.0 9.0 
5.0 3.0 3.0 8.0 4.0 4.0 6.0 7.0 2.0 4.0 7.0 1.0 6.0 1.0 7.0 2.0 5.0 1.0 3.0 4.0 3.0 6.0 8.0 0.0 4.0 9.0 8.0 8.0 4.0 3.0 7.0 0.0 0.0 2.0 7.0 5.0 0.0 5.0 0.0 10.0 1.0 10.0 -425.0 10.0 7.0 6.0 8.0 0.0 3.0 3.0 9.0 0.0 6.0 2.0 8.0 5.0 9.0 2.0 4.0 5.0 2.0 0.0 3.0 7.0 4.0 6.0 5.0 0.0 0.0 1.0 6.0 3.0 6.0 2.0 0.0 10.0 3.0 10.0 0.0 10.0 4.0 5.0 4.0 9.0 9.0 3.0 6.0 0.0 6.0 1.0 10.0 1.0 9.0 8.0 2.0 
3.0 4.0 0.0 3.0 8.0 1.0 4.0 3.0 3.0 1.0 8.0 1.0 5.0 3.0 9.0 3.0 1.0 0.0 6.0 9.0 9.0 5.0 3.0 1.0 2.0 9.0 1.0 5.0 10.0 0.0 10.0 5.0 6.0 1.0 5.0 2.0 0.0 0.0 1.0 1.0 0.0 2.0 10.0 -412.0 9.0 0.0 7.0 7.0 6.0 6.0 2.0 8.0 4.0 2.0 2.0 7.0 2.0 0.0 1.0 2.0 7.0 6.0 5.0 8.0 5.0 8.0 5.0 7.0 6.0 0.0 3.0 8.0 5.0 5.0 7.0 2.0 1.0 1.0 7.0 7.0 8.0 0.0 10.0 5.0 4.0 5.0 6.0 5.0 7.0 3.0 9.0 2.0 0.0 8.0 9.0 
2.0 8.0 2.0 2.0 8.0 9.0 5.0 3.0 10.0 5.0 9.0 2.0 9.0 0.0 9.0 2.0 1.0 6.0 5.0 7.0 9.0 5.0 4.0 4.0 0.0 8.0 8.0 7.0 0.0 10.0 5.0 7.0 1.0 3.0 10.0 0.0 1.0 2.0 0.0 9.0 0.0 10.0 7.0 9.0 -475.0 6.0 7.0 3.0 5.0 10.0 6.0 7.0 2.0 3.0 9.0 3.0 7.0 8.0 2.0 8.0 7.0 3.0 7.0 1.0 8.0 10.0 6.0 5.0 4.0 6.0 5.0 8.0 0.0 4.0 3.0 7.0 9.0 0.0 8.0 3.0 6.0 7.0 6.0 1.0 4.0 2.0 5.0 0.0 1.0 0.0 4.0 10.0 8.0 0.0 8.0 
4.0 8.0 8.0 3.0 4.0 2.0 3.0 8.0 4.0 0.0 0.0 2.0 5.0 8.0 3.0 5.0 6.0 5.0 10.0 9.0 2.0 8.0 4.0 9.0 4.0 2.0 4.0 9.0 8.0 8.0 9.0 7.0 6.0 7.0 10.0 9.0 0.0 6.0 10.0 1.0 8.0 4.0 6.0 0.0 6.0 -464.0 6.0 3.0 4.0 6.0 0.0 8.0 0.0 1.0 2.0 3.0 6.0 1.0 9.0 4.0 5.0 6.0 7.0 8.0 9.0 9.0 9.0 9.0 1.0 3.0 9.0 1.0 1.0 0.0 0.0 5.0 7.0 0.0 9.0 5.0 6.0 4.0 0.0 7.0 6.0 7.0 6.0 7.0 0.0 3.0 2.0 1.0 4.0 7.0 4.0 
4.0 7.0 0.0 1.0 1.0 3.0 3.0 5.0 1.0 10.0 10.0 4.0 1.0 4.0 1.0 10.0 6.0 9.0 0.0 5.0 10.0 0.0 3.0 4.0 8.0 9.0 4.0 3.0 1.0 6.0 0.0 6.0 4.0 4.0 5.0 3.0 2.0 0.0 2.0 7.0 2.0 9.0 8.0 7.0 7.0 6.0 -473.0 6.0 1.0 10.0 10.0 5.0 10.0 10.0 4.0 3.0 9.0 10.0 5.0 7.0 8.0 7.0 2.0 5.0 8.0 8.0 7.0 8.0 8.0 6.0 4.0 4.0 2.0 7.0 3.0 2.0 7.0 4.0 8.0 3.0 1.0 1.0 1.0 10.0 6.0 7.0 7.0 6.0 8.0 1.0 1.0 0.0 1.0 7.0 10.0 
5.0 10.0 5.0 1.0 8.0 3.0 3.0 2.0 7.0 5.0 7.0 10.0 5.0 10.0 2.0 8.0 10.0 2.0 7.0 2.0 1.0 3.0 5.0 9.0 5.0 4.0 7.0 4.0 3.0 0.0 10.0 8.0 3.0 4.0 7.0 0.0 6.0 10.0 1.0 0.0 0.0 4.0 0.0 7.0 3.0 3.0 6.0 -461.0 1.0 3.0 7.0 8.0 9.0 6.0 1.0 5.0 8.0 0.0 9.0 10.0 1.0 7.0 8.0 0.0 3.0 4.0 7.0 1.0 5.0 5.0 1.0 2.0 7.0 0.0 10.0 5.0 10.0 0.0 5.0 5.0 9.0 0.0 5.0 6.0 9.0 0.0 4.0 5.0 1.0 10.0 10.0 5.0 5.0 8.0 6.0 
1.0 9.0 5.0 2.0 9.0 8.0 8.0 6.0 3.0 1.0 9.0 8.0 4.0 3.0 1.0 2.0 5.0 3.0 2.0 7.0 0.0 5.0 5.0 0.0 1.0 5.0 2.0 2.0 8.0 8.0 0.0 6.0 10.0 10.0 0.0 6.0 9.0 9.0 5.0 3.0 4.0 4.0 3.0 6.0 5.0 4.0 1.0 1.0 -452.0 7.0 8.0 2.0 8.0 0.0 3.0 9.0 4.0 0.0 4.0 6.0 3.0 3.0 10.0 8.0 8.0 5.0 2.0 5.0 10.0 6.0 4.0 6.0 5.0 8.0 1.0 9.0 8.0 2.0 5.0 7.0 2.0 10.0 5.0 6.0 1.0 7.0 1.0 8.0 10.0 5.0 3.0 1.0 2.0 6.0 1.0 
7.0 8.0 0.0 2.0 7.0 3.0 7.0 6.0 2.0 0.0 0.0 8.0 9.0 7.0 8.0 4.0 9.0 3.0 0.0 8.0 7.0 5.0 9.0 1.0 4.0 7.0 1.0 4.0 9.0 8.0 4.0 0.0 1.0 10.0 7.0 1.0 4.0 4.0 6.0 4.0 10.0 6.0 3.0 6.0 10.0 6.0 10.0 3.0 7.0 -497.0 1.0 9.0 9.0 6.0 5.0 4.0 6.0 1.0 10.0 2.0 5.0 8.0 7.0 3.0 10.0 1.0 3.0 7.0 4.0 8.0 7.0 2.0 3.0 4.0 8.0 1.0 6.0 4.0 4.0 8.0 3.0 0.0 10.0 0.0 4.0 10.0 3.0 1.0 8.0 8.0 8.0 9.0 10.0 9.0 3.0 
5.0 10.0 6.0 2.0 0.0 1.0 5.0 4.0 0.0 6.0 4.0 6.0 6.0 5.0 5.0 8.0 0.0 4.0 5.0 3.0 2.0 5.0 9.0 7.0 9.0 6.0 1.0 8.0 0.0 1.0 3.0 0.0 3.0 9.0 9.0 3.0 6.0 8.0 1.0 4.0 2.0 10.0 9.0 2.0 6.0 0.0 10.0 7.0 8.0 1.0 -464.0 5.0 9.0 8.0 6.0 1.0 5.0 3.0 2.0 5.0 3.0 7.0 9.0 8.0 7.0 7.0 1.0 1.0 9.0 0.0 2.0 5.0 0.0 4.0 3.0 9.0 6.0 2.0 2.0 1.0 9.0 9.0 4.0 8.0 1.0 8.0 4.0 9.0 8.0 9.0 9.0 6.0 1.0 9.0 6.0 
1.0 4.0 6.0 5.0 6.0 8.0 4.0 3.0 7.0 10.0 6.0 0.0 10.0 4.0 6.0 3.0 9.0 0.0 5.0 10.0 1.0 0.0 4.0 7.0 0.0 0.0 10.0 3.0 1.0 1.0 9.0 0.0 0.0 5.0 10.0 3.0 9.0 2.0 1.0 6.0 5.0 1.0 0.0 8.0 7.0 8.0 5.0 8.0 2.0 9.0 5.0 -457.0 3.0 3.0 8.0 5.0 0.0 10.0 10.0 6.0 0.0 10.0 5.0 2.0 9.0 4.0 6.0 5.0 10.0 10.0 3.0 4.0 9.0 3.0 10.0 0.0 2.0 9.0 2.0 5.0 8.0 0.0 9.0 0.0 7.0 3.0 10.0 7.0 0.0 4.0 4.0 3.0 4.0 4.0 4.0 
6.0 3.0 1.0 0.0 7.0 5.0 4.0 4.0 3.0 4.0 8.0 10.0 0.0 1.0 9.0 9.0 1.0 6.0 4.0 1.0 3.0 8.0 4.0 10.0 5.0 3.0 6.0 3.0 8.0 4.0 6.0 2.0 6.0 10.0 3.0 1.0 3.0 7.0 2.0 1.0 6.0 5.0 6.0 4.0 2.0 0.0 10.0 9.0 8.0 9.0 9.0 3.0 -499.0 2.0 0.0 5.0 1.0 9.0 2.0 1.0 8.0 9.0 7.0 9.0 8.0 9.0 5.0 1.0 9.0 8.0 7.0 5.0 0.0 0.0 7.0 4.0 10.0 9.0 5.0 1.0 9.0 8.0 6.0 9.0 1.0 10.0 8.0 1.0 6.0 8.0 2.0 9.0 9.0 10.0 10.0 
1.0 9.0 4.0 3.0 6.0 4.0 10.0 2.0 5.0 4.0 6.0 7.0 9.0 2.0 9.0 4.0 5.0 9.0 6.0 5.0 4.0 3.0 2.0 9.0 1.0 0.0 9.0 4.0 0.0 4.0 5.0 10.0 4.0 6.0 5.0 7.0 1.0 3.0 9.0 6.0 6.0 7.0 2.0 2.0 3.0 1.0 10.0 6.0 0.0 6.0 8.0 3.0 2.0 -474.0 5.0 6.0 2.0 6.0 3.0 5.0 6.0 3.0 2.0 1.0 4.0 8.0 10.0 9.0 6.0 8.0 8.0 9.0 8.0 10.0 9.0 1.0 6.0 0.0 5.0 3.0 4.0 10.0 2.0 4.0 2.0 3.0 1.0 7.0 10.0 3.0 9.0 9.0 3.0 1.0 5.0 
7.0 6.0 2.0 0.0 6.0 8.0 1.0 8.0 8.0 5.0 5.0 6.0 0.0 8.0 7.0 5.0 4.0 4.0 4.0 10.0 4.0 5.0 9.0 5.0 7.0 8.0 1.0 6.0 3.0 8.0 5.0 2.0 10.0 3.0 6.0 1.0 8.0 9.0 7.0 9.0 0.0 4.0 8.0 2.0 9.0 2.0 4.0 1.0 3.0 5.0 6.0 8.0 0.0 5.0 -480.0 9.0 9.0 6.0 8.0 0.0 1.0 0.0 1.0 2.0 4.0 5.0 3.0 9.0 7.0 6.0 10.0 6.0 5.0 4.0 2.0 7.0 5.0 3.0 0.0 10.0 7.0 8.0 0.0 10.0 6.0 8.0 10.0 3.0 1.0 1.0 8.0 4.0 8.0 7.0 0.0 
5.0 4.0 2.0 10.0 10.0 7.0 6.0 8.0 1.0 6.0 9.0 3.0 0.0 3.0 3.0 9.0 3.0 6.0 4.0 1.0 10.0 4.0 0.0 2.0 7.0 5.0 7.0 6.0 1.0 8.0 8.0 2.0 0.0 2.0 1.0 8.0 7.0 9.0 1.0 6.0 3.0 4.0 5.0 7.0 3.0 3.0 3.0 5.0 9.0 4.0 1.0 5.0 5.0 6.0 9.0 -457.0 4.0 1.0 2.0 9.0 8.0 0.0 0.0 5.0 8.0 6.0 9.0 8.0 2.0 6.0 1.0 6.0 1.0 3.0 0.0 10.0 10.0 8.0 6.0 3.0 6.0 8.0 1.0 4.0 7.0 7.0 10.0 6.0 8.0 4.0 0.0 4.0 2.0 8.0 0.0 
0.0 6.0 0.0 5.0 7.0 3.0 6.0 8.0 2.0 4.0 1.0 2.0 6.0 2.0 10.0 9.0 2.0 4.0 2.0 6.0 2.0 10.0 0.0 4.0 6.0 2.0 7.0 2.0 0.0 6.0 3.0 7.0 9.0 7.0 9.0 3.0 7.0 5.0 0.0 1.0 7.0 0.0 9.0 2.0 7.0 6.0 9.0 8.0 4.0 6.0 5.0 0.0 1.0 2.0 9.0 4.0 -451.0 0.0 7.0 10.0 10.0 5.0 7.0 3.0 2.0 1.0 0.0 4.0 7.0 8.0 7.0 3.0 7.0 9.0 7.0 2.0 8.0 2.0 6.0 5.0 4.0 10.0 7.0 1.0 8.0 4.0 7.0 2.0 7.0 8.0 0.0 8.0 1.0 7.0 3.0 
4.0 8.0 6.0 0.0 4.0 3.0 1.0 9.0 8.0 1.0 1.0 5.0 6.0 4.0 9.0 5.0 10.0 0.0 6.0 0.0 5.0 7.0 5.0 8.0 8.0 10.0 0.0 6.0 6.0 1.0 7.0 0.0 3.0 6.0 8.0 1.0 6.0 2.0 4.0 3.0 4.0 5.0 2.0 0.0 8.0 1.0 10.0 0.0 0.0 1.0 3.0 10.0 9.0 6.0 6.0 1.0 0.0 -423.0 5.0 2.0 5.0 6.0 8.0 0.0 4.0 6.0 8.0 9.0 0.0 10.0 7.0 8.0 5.0 3.0 1.0 7.0 4.0 6.0 1.0 8.0 4.0 5.0 2.0 5.0 7.0 5.0 3.0 0.0 6.0 3.0 4.0 4.0 4.0 1.0 5.0 
10.0 2.0 3.0 2.0 8.0 8.0 1.0 3.0 3.0 5.0 9.0 0.0 10.0 4.0 3.0 3.0 9.0 3.0 2.0 6.0 4.0 4.0 5.0 5.0 7.0 3.0 8.0 6.0 5.0 1.0 3.0 8.0 9.0 5.0 4.0 7.0 2.0 1.0 7.0 5.0 3.0 10.0 4.0 1.0 2.0 9.0 5.0 9.0 4.0 10.0 2.0 10.0 2.0 3.0 8.0 2.0 7.0 5.0 -458.0 2.0 1.0 6.0 5.0 3.0 0.0 3.0 4.0 6.0 1.0 3.0 6.0 1.0 10.0 5.0 7.0 4.0 1.0 3.0 7.0 3.0 9.0 10.0 7.0 1.0 5.0 9.0 4.0 4.0 4.0 8.0 4.0 3.0 5.0 8.0 7.0 
4.0 10.0 9.0 2.0 6.0 1.0 2.0 7.0 6.0 3.0 4.0 4.0 10.0 4.0 10.0 6.0 10.0 0.0 5.0 6.0 10.0 1.0 7.0 10.0 0.0 2.0 3.0 7.0 3.0 8.0 1.0 3.0 6.0 9.0 3.0 9.0 4.0 4.0 9.0 5.0 7.0 5.0 5.0 2.0 8.0 4.0 7.0 10.0 6.0 2.0 5.0 6.0 1.0 5.0 0.0 9.0 10.0 2.0 2.0 -499.0 5.0 5.0 7.0 1.0 0.0 10.0 5.0 6.0 6.0 2.0 10.0 1.0 8.0 4.0 2.0 6.0 8.0 8.0 6.0 9.0 1.0 3.0 2.0 7.0 7.0 0.0 8.0 0.0 8.0 9.0 10.0 10.0 10.0 5.0 1.0 
6.0 5.0 7.0 2.0 7.0 2.0 0.0 5.0 9.0 10.0 5.0 0.0 7.0 9.0 3.0 9.0 10.0 7.0 1.0 1.0 8.0 1.0 0.0 2.0 7.0 7.0 10.0 4.0 4.0 9.0 10.0 3.0 0.0 10.0 1.0 5.0 0.0 3.0 7.0 7.0 5.0 4.0 2.0 7.0 7.0 5.0 8.0 1.0 3.0 5.0 3.0 0.0 8.0 6.0 1.0 8.0 10.0 5.0 1.0 5.0 -501.0 4.0 10.0 3.0 0.0 5.0 5.0 4.0 9.0 5.0 3.0 9.0 0.0 6.0 10.0 6.0 10.0 7.0 8.0 10.0 8.0 7.0 7.0 6.0 9.0 8.0 9.0 8.0 3.0 5.0 2.0 5.0 0.0 3.0 10.0 
3.0 6.0 4.0 8.0 3.0 2.0 0.0 1.0 0.0 0.0 4.0 8.0 4.0 10.0 7.0 10.0 10.0 6.0 3.0 7.0 8.0 2.0 9.0 7.0 1.0 5.0 3.0 4.0 3.0 7.0 10.0 9.0 10.0 6.0 7.0 2.0 6.0 6.0 2.0 0.0 8.0 6.0 0.0 6.0 3.0 6.0 7.0 7.0 3.0 8.0 7.0 10.0 9.0 3.0 0.0 0.0 5.0 6.0 6.0 5.0 4.0 -457.0 2.0 2.0 8.0 8.0 0.0 4.0 6.0 1.0 8.0 8.0 3.0 10.0 6.0 2.0 2.0 8.0 2.0 6.0 1.0 8.0 10.0 5.0 0.0 0.0 6.0 9.0 3.0 4.0 4.0 0.0 7.0 2.0 0.0 
0.0 6.0 2.0 1.0 0.0 6.0 9.0 8.0 7.0 5.0 6.0 2.0 10.0 8.0 4.0 7.0 10.0 4.0 7.0 2.0 8.0 7.0 2.0 0.0 9.0 7.0 4.0 3.0 4.0 9.0 8.0 1.0 6.0 0.0 10.0 0.0 4.0 1.0 5.0 3.0 8.0 3.0 3.0 5.0 7.0 7.0 2.0 8.0 10.0 7.0 9.0 5.0 7.0 2.0 1.0 0.0 7.0 8.0 5.0 7.0 10.0 2.0 -482.0 2.0 3.0 8.0 9.0 4.0 6.0 10.0 4.0 0.0 3.0 1.0 4.0 10.0 10.0 1.0 9.0 8.0 6.0 10.0 10.0 5.0 2.0 3.0 4.0 0.0 9.0 1.0 3.0 10.0 2.0 1.0 6.0 
1.0 7.0 8.0 5.0 10.0 10.0 0.0 10.0 10.0 5.0 3.0 0.0 4.0 4.0 3.0 6.0 0.0 3.0 8.0 2.0 0.0 8.0 2.0 6.0 8.0 10.0 3.0 6.0 10.0 10.0 0.0 2.0 9.0 9.0 3.0 2.0 2.0 1.0 1.0 10.0 3.0 1.0 7.0 8.0 1.0 8.0 5.0 0.0 8.0 3.0 8.0 2.0 9.0 1.0 2.0 5.0 3.0 0.0 3.0 1.0 3.0 2.0 2.0 -462.0 3.0 7.0 10.0 1.0 9.0 4.0 1.0 5.0 4.0 3.0 6.0 4.0 0.0 10.0 4.0 3.0 5.0 6.0 8.0 5.0 7.0 8.0 10.0 0.0 7.0 7.0 8.0 10.0 7.0 4.0 10.0 
0.0 4.0 3.0 5.0 7.0 3.0 1.0 0.0 4.0 0.0 10.0 10.0 10.0 8.0 3.0 7.0 10.0 9.0 4.0 1.0 10.0 10.0 6.0 3.0 2.0 8.0 9.0 0.0 3.0 8.0 3.0 0.0 9.0 1.0 7.0 9.0 7.0 4.0 0.0 4.0 2.0 6.0 4.0 5.0 8.0 9.0 8.0 3.0 8.0 10.0 7.0 9.0 8.0 4.0 4.0 8.0 2.0 4.0 0.0 0.0 0.0 8.0 3.0 3.0 -449.0 10.0 5.0 0.0 1.0 5.0 3.0 8.0 6.0 0.0 2.0 6.0 3.0 10.0 0.0 3.0 9.0 5.0 1.0 1.0 7.0 5.0 2.0 5.0 7.0 3.0 4.0 2.0 3.0 6.0 2.0 
9.0 5.0 8.0 10.0 4.0 9.0 3.0 8.0 0.0 2.0 9.0 3.0 6.0 2.0 2.0 6.0 10.0 4.0 1.0 2.0 9.0 0.0 9.0 5.0 5.0 10.0 9.0 4.0 1.0 4.0 9.0 7.0 2.0 2.0 3.0 5.0 6.0 0.0 3.0 0.0 4.0 4.0 6.0 8.0 10.0 9.0 8.0 4.0 5.0 1.0 7.0 4.0 9.0 8.0 5.0 6.0 1.0 6.0 3.0 10.0 5.0 8.0 8.0 7.0 10.0 -478.0 1.0 10.0 10.0 5.0 8.0 1.0 3.0 3.0 6.0 6.0 1.0 3.0 6.0 2.0 2.0 8.0 4.0 0.0 1.0 5.0 10.0 3.0 2.0 6.0 0.0 3.0 1.0 8.0 8.0 
2.0 6.0 5.0 3.0 7.0 4.0 10.0 6.0 0.0 7.0 10.0 9.0 3.0 4.0 4.0 3.0 7.0 9.0 3.0 1.0 4.0 10.0 1.0 0.0 5.0 9.0 9.0 2.0 0.0 2.0 9.0 4.0 3.0 7.0 9.0 0.0 0.0 9.0 0.0 7.0 5.0 9.0 5.0 5.0 6.0 9.0 7.0 7.0 2.0 3.0 1.0 6.0 5.0 10.0 3.0 9.0 0.0 8.0 4.0 5.0 5.0 0.0 9.0 10.0 5.0 1.0 -443.0 4.0 2.0 5.0 4.0 1.0 8.0 0.0 1.0 10.0 4.0 3.0 2.0 5.0 4.0 8.0 10.0 2.0 5.0 1.0 4.0 2.0 5.0 2.0 3.0 0.0 4.0 5.0 7.0 
8.0 3.0 6.0 3.0 8.0 6.0 0.0 3.0 4.0 2.0 2.0 3.0 10.0 8.0 8.0 5.0 9.0 4.0 7.0 0.0 9.0 2.0 4.0 4.0 7.0 8.0 10.0 3.0 6.0 0.0 2.0 5.0 5.0 8.0 9.0 5.0 8.0 5.0 2.0 7.0 4.0 9.0 0.0 7.0 5.0 9.0 8.0 1.0 5.0 7.0 1.0 5.0 1.0 9.0 9.0 8.0 4.0 9.0 6.0 6.0 4.0 4.0 4.0 1.0 0.0 10.0 4.0 -493.0 3.0 8.0 5.0 2.0 6.0 7.0 1.0 9.0 9.0 10.0 1.0 2.0 7.0 4.0 0.0 0.0 10.0 0.0 10.0 5.0 5.0 8.0 10.0 6.0 3.0 10.0 4.0 
0.0 6.0 3.0 10.0 1.0 3.0 1.0 2.0 2.0 8.0 8.0 9.0 6.0 9.0 9.0 10.0 3.0 3.0 5.0 9.0 9.0 10.0 2.0 1.0 1.0 0.0 6.0 0.0 9.0 2.0 2.0 4.0 4.0 4.0 4.0 10.0 7.0 6.0 2.0 0.0 2.0 7.0 0.0 6.0 4.0 1.0 8.0 5.0 10.0 4.0 9.0 10.0 9.0 6.0 7.0 2.0 7.0 0.0 1.0 6.0 9.0 6.0 6.0 9.0 1.0 10.0 2.0 3.0 -462.0 4.0 0.0 1.0 2.0 2.0 4.0 2.0 1.0 3.0 7.0 8.0 1.0 5.0 6.0 7.0 3.0 9.0 7.0 3.0 10.0 5.0 10.0 8.0 3.0 5.0 6.0 
6.0 2.0 9.0 8.0 10.0 7.0 10.0 2.0 7.0 2.0 9.0 1.0 8.0 5.0 6.0 4.0 0.0 6.0 5.0 8.0 7.0 0.0 6.0 5.0 10.0 0.0 6.0 7.0 4.0 0.0 8.0 2.0 1.0 5.0 4.0 6.0 8.0 10.0 4.0 5.0 4.0 9.0 1.0 0.0 6.0 3.0 6.0 5.0 6.0 8.0 0.0 10.0 8.0 8.0 6.0 6.0 8.0 10.0 3.0 2.0 5.0 1.0 10.0 4.0 5.0 5.0 5.0 8.0 4.0 -501.0 1.0 8.0 6.0 8.0 3.0 1.0 2.0 8.0 0.0 5.0 10.0 1.0 9.0 8.0 8.0 9.0 5.0 5.0 7.0 3.0 8.0 1.0 5.0 5.0 6.0 
9.0 7.0 8.0 9.0 8.0 6.0 6.0 2.0 5.0 0.0 1.0 6.0 9.0 2.0 0.0 0.0 6.0 1.0 6.0 6.0 0.0 3.0 4.0 5.0 6.0 9.0 2.0 9.0 5.0 2.0 9.0 5.0 1.0 6.0 0.0 5.0 6.0 9.0 9.0 9.0 2.0 6.0 6.0 3.0 5.0 9.0 4.0 1.0 4.0 7.0 2.0 3.0 7.0 8.0 10.0 1.0 7.0 7.0 6.0 10.0 3.0 8.0 4.0 1.0 3.0 8.0 4.0 5.0 0.0 1.0 -468.0 6.0 7.0 6.0 9.0 5.0 1.0 8.0 4.0 6.0 8.0 1.0 5.0 0.0 8.0 6.0 5.0 8.0 1.0 2.0 6.0 4.0 6.0 7.0 3.0 
2.0 3.0 4.0 7.0 0.0 6.0 8.0 2.0 2.0 10.0 5.0 6.0 0.0 8.0 4.0 4.0 5.0 9.0 6.0 10.0 0.0 8.0 0.0 0.0 3.0 1.0 10.0 0.0 6.0 3.0 0.0 9.0 6.0 1.0 7.0 1.0 10.0 2.0 8.0 10.0 9.0 4.0 3.0 8.0 8.0 1.0 4.0 2.0 6.0 2.0 5.0 4.0 5.0 9.0 6.0 6.0 3.0 8.0 1.0 1.0 9.0 8.0 0.0 5.0 8.0 1.0 1.0 2.0 1.0 8.0 6.0 -451.0 0.0 3.0 7.0 3.0 2.0 10.0 3.0 9.0 3.0 10.0 9.0 0.0 10.0 5.0 6.0 10.0 5.0 10.0 3.0 3.0 8.0 1.0 1.0 
10.0 6.0 6.0 10.0 8.0 1.0 2.0 0.0 0.0 7.0 5.0 5.0 7.0 6.0 10.0 3.0 6.0 5.0 5.0 8.0 2.0 4.0 9.0 7.0 5.0 10.0 9.0 5.0 10.0 6.0 9.0 7.0 3.0 0.0 9.0 6.0 8.0 7.0 8.0 8.0 6.0 5.0 6.0 5.0 0.0 1.0 2.0 7.0 5.0 3.0 0.0 9.0 0.0 8.0 5.0 1.0 7.0 5.0 10.0 8.0 0.0 3.0 3.0 4.0 6.0 3.0 8.0 6.0 2.0 6.0 7.0 0.0 -472.0 6.0 2.0 8.0 1.0 0.0 1.0 3.0 1.0 2.0 9.0 1.0 6.0 6.0 6.0 7.0 1.0 1.0 5.0 9.0 4.0 8.0 2.0 
6.0 1.0 1.0 6.0 0.0 10.0 0.0 1.0 10.0 9.0 8.0 0.0 8.0 7.0 8.0 10.0 2.0 4.0 9.0 3.0 1.0 10.0 0.0 8.0 9.0 6.0 0.0 2.0 5.0 2.0 2.0 9.0 9.0 2.0 0.0 2.0 0.0 7.0 8.0 7.0 9.0 6.0 2.0 5.0 4.0 0.0 7.0 0.0 8.0 4.0 4.0 3.0 0.0 10.0 4.0 3.0 9.0 3.0 5.0 4.0 6.0 10.0 1.0 3.0 0.0 3.0 0.0 7.0 2.0 8.0 6.0 3.0 6.0 -420.0 3.0 1.0 7.0 1.0 8.0 7.0 1.0 5.0 6.0 8.0 2.0 7.0 2.0 5.0 10.0 0.0 2.0 1.0 2.0 3.0 2.0 
8.0 3.0 6.0 9.0 5.0 6.0 10.0 2.0 3.0 9.0 3.0 10.0 3.0 0.0 8.0 3.0 2.0 9.0 6.0 7.0 3.0 3.0 8.0 9.0 0.0 2.0 6.0 7.0 3.0 10.0 5.0 0.0 7.0 8.0 7.0 9.0 5.0 1.0 2.0 5.0 8.0 0.0 0.0 7.0 3.0 0.0 3.0 10.0 1.0 8.0 3.0 10.0 7.0 9.0 2.0 0.0 7.0 1.0 7.0 2.0 10.0 6.0 4.0 6.0 2.0 6.0 1.0 1.0 4.0 3.0 9.0 7.0 2.0 3.0 -461.0 1.0 5.0 6.0 9.0 9.0 3.0 2.0 1.0 8.0 1.0 1.0 1.0 9.0 2.0 6.0 2.0 9.0 8.0 6.0 8.0 
8.0 7.0 3.0 5.0 4.0 8.0 3.0 9.0 2.0 5.0 3.0 8.0 0.0 4.0 2.0 1.0 7.0 6.0 0.0 8.0 1.0 8.0 6.0 9.0 5.0 5.0 9.0 7.0 9.0 10.0 7.0 10.0 1.0 2.0 1.0 9.0 7.0 7.0 6.0 1.0 4.0 9.0 10.0 2.0 7.0 5.0 2.0 5.0 9.0 1.0 9.0 0.0 4.0 1.0 7.0 10.0 2.0 7.0 4.0 6.0 6.0 2.0 10.0 4.0 6.0 6.0 10.0 9.0 2.0 1.0 5.0 3.0 8.0 1.0 1.0 -484.0 9.0 9.0 10.0 7.0 5.0 9.0 4.0 8.0 1.0 0.0 0.0 1.0 5.0 7.0 8.0 8.0 1.0 0.0 1.0 
10.0 8.0 8.0 8.0 4.0 4.0 1.0 1.0 1.0 8.0 6.0 2.0 5.0 8.0 3.0 9.0 6.0 2.0 6.0 10.0 6.0 9.0 2.0 6.0 4.0 7.0 5.0 10.0 4.0 0.0 4.0 4.0 0.0 9.0 3.0 9.0 3.0 9.0 3.0 1.0 4.0 9.0 3.0 1.0 9.0 7.0 7.0 10.0 8.0 6.0 6.0 2.0 10.0 6.0 5.0 10.0 8.0 4.0 1.0 8.0 10.0 2.0 10.0 0.0 3.0 1.0 4.0 9.0 1.0 2.0 1.0 2.0 1.0 7.0 5.0 9.0 -485.0 3.0 3.0 10.0 7.0 0.0 8.0 2.0 8.0 2.0 4.0 9.0 1.0 8.0 5.0 5.0 1.0 9.0 1.0 
6.0 4.0 6.0 4.0 0.0 7.0 6.0 7.0 10.0 6.0 0.0 10.0 2.0 9.0 2.0 6.0 6.0 8.0 7.0 9.0 0.0 2.0 10.0 9.0 9.0 4.0 5.0 5.0 10.0 1.0 6.0 0.0 9.0 1.0 7.0 6.0 8.0 2.0 8.0 8.0 9.0 6.0 10.0 1.0 0.0 0.0 4.0 0.0 2.0 4.0 2.0 9.0 9.0 0.0 3.0 8.0 2.0 6.0 3.0 8.0 7.0 8.0 1.0 10.0 10.0 3.0 3.0 10.0 3.0 8.0 8.0 10.0 0.0 1.0 6.0 9.0 3.0 -505.0 9.0 10.0 4.0 3.0 10.0 7.0 0.0 7.0 5.0 3.0 5.0 3.0 2.0 9.0 5.0 6.0 6.0 
5.0 4.0 5.0 2.0 0.0 0.0 1.0 6.0 3.0 2.0 0.0 4.0 5.0 6.0 10.0 10.0 9.0 8.0 7.0 1.0 5.0 5.0 0.0 2.0 9.0 2.0 0.0 4.0 4.0 4.0 6.0 1.0 3.0 8.0 2.0 4.0 9.0 9.0 4.0 8.0 3.0 1.0 0.0 7.0 8.0 9.0 8.0 5.0 5.0 4.0 2.0 2.0 5.0 5.0 0.0 6.0 6.0 1.0 7.0 6.0 8.0 2.0 9.0 4.0 0.0 6.0 2.0 1.0 7.0 0.0 4.0 3.0 1.0 8.0 9.0 10.0 3.0 9.0 -428.0 7.0 8.0 1.0 6.0 5.0 9.0 10.0 1.0 7.0 6.0 0.0 4.0 5.0 0.0 1.0 5.0 
4.0 1.0 9.0 2.0 1.0 10.0 1.0 9.0 8.0 6.0 4.0 5.0 8.0 10.0 7.0 10.0 3.0 4.0 4.0 10.0 10.0 10.0 7.0 4.0 3.0 8.0 3.0 1.0 5.0 5.0 8.0 3.0 8.0 5.0 4.0 4.0 6.0 7.0 3.0 6.0 4.0 7.0 10.0 7.0 3.0 5.0 3.0 5.0 7.0 8.0 1.0 5.0 1.0 3.0 10.0 3.0 5.0 8.0 3.0 9.0 10.0 6.0 8.0 3.0 3.0 2.0 5.0 2.0 8.0 5.0 6.0 9.0 3.0 7.0 9.0 7.0 10.0 10.0 7.0 -532.0 4.0 10.0 8.0 5.0 6.0 5.0 4.0 0.0 5.0 6.0 5.0 8.0 10.0 3.0 0.0 
3.0 4.0 10.0 8.0 5.0 7.0 10.0 0.0 8.0 4.0 6.0 10.0 6.0 6.0 7.0 10.0 8.0 7.0 5.0 7.0 9.0 1.0 2.0 5.0 8.0 1.0 0.0 2.0 0.0 7.0 2.0 7.0 10.0 10.0 7.0 2.0 9.0 7.0 3.0 0.0 4.0 5.0 4.0 8.0 6.0 6.0 1.0 9.0 2.0 3.0 9.0 8.0 9.0 4.0 7.0 6.0 4.0 4.0 9.0 1.0 8.0 1.0 6.0 5.0 9.0 2.0 4.0 7.0 1.0 10.0 8.0 3.0 1.0 1.0 3.0 5.0 7.0 4.0 8.0 4.0 -499.0 1.0 4.0 10.0 0.0 3.0 0.0 10.0 3.0 9.0 10.0 4.0 8.0 6.0 2.0 
5.0 7.0 5.0 0.0 6.0 8.0 2.0 10.0 10.0 9.0 4.0 4.0 7.0 3.0 7.0 5.0 9.0 7.0 10.0 6.0 0.0 6.0 1.0 6.0 0.0 6.0 6.0 4.0 9.0 8.0 9.0 4.0 4.0 6.0 0.0 6.0 8.0 2.0 7.0 2.0 10.0 9.0 5.0 0.0 7.0 4.0 1.0 0.0 10.0 0.0 9.0 0.0 8.0 10.0 8.0 8.0 10.0 5.0 10.0 3.0 7.0 8.0 10.0 6.0 5.0 8.0 8.0 4.0 5.0 1.0 1.0 10.0 2.0 5.0 2.0 9.0 0.0 3.0 1.0 10.0 1.0 -505.0 1.0 4.0 0.0 4.0 8.0 3.0 9.0 2.0 10.0 10.0 5.0 0.0 8.0 
7.0 7.0 8.0 8.0 6.0 9.0 4.0 1.0 5.0 7.0 7.0 10.0 0.0 0.0 0.0 9.0 4.0 4.0 3.0 1.0 1.0 7.0 5.0 8.0 2.0 9.0 6.0 8.0 0.0 4.0 3.0 0.0 4.0 1.0 7.0 10.0 2.0 9.0 9.0 7.0 2.0 7.0 4.0 10.0 6.0 0.0 1.0 5.0 5.0 10.0 4.0 9.0 6.0 2.0 0.0 1.0 7.0 2.0 7.0 2.0 7.0 10.0 10.0 8.0 1.0 4.0 10.0 0.0 6.0 9.0 5.0 9.0 9.0 6.0 1.0 4.0 8.0 10.0 6.0 8.0 4.0 1.0 -504.0 7.0 8.0 6.0 4.0 5.0 2.0 7.0 5.0 9.0 9.0 7.0 7.0 
10.0 2.0 5.0 6.0 1.0 1.0 8.0 1.0 9.0 1.0 7.0 10.0 7.0 1.0 0.0 8.0 7.0 10.0 1.0 9.0 6.0 0.0 4.0 1.0 0.0 9.0 9.0 9.0 5.0 7.0 1.0 4.0 6.0 6.0 6.0 6.0 5.0 8.0 7.0 8.0 1.0 10.0 9.0 5.0 1.0 7.0 10.0 6.0 6.0 0.0 8.0 0.0 9.0 4.0 10.0 4.0 1.0 5.0 1.0 7.0 6.0 5.0 5.0 5.0 1.0 0.0 2.0 0.0 7.0 8.0 0.0 0.0 1.0 8.0 8.0 8.0 2.0 7.0 5.0 5.0 10.0 4.0 7.0 -470.0 2.0 8.0 9.0 0.0 4.0 8.0 0.0 7.0 6.0 0.0 7.0 
10.0 4.0 2.0 4.0 0.0 6.0 5.0 2.0 4.0 10.0 8.0 10.0 9.0 0.0 10.0 1.0 10.0 7.0 6.0 2.0 0.0 3.0 1.0 8.0 9.0 6.0 9.0 3.0 6.0 4.0 3.0 8.0 2.0 6.0 7.0 7.0 0.0 6.0 5.0 7.0 6.0 8.0 9.0 4.0 4.0 6.0 6.0 9.0 1.0 4.0 1.0 7.0 1.0 2.0 6.0 7.0 8.0 7.0 5.0 7.0 9.0 0.0 2.0 7.0 7.0 1.0 5.0 10.0 3.0 8.0 8.0 10.0 6.0 2.0 1.0 1.0 8.0 0.0 9.0 6.0 0.0 0.0 8.0 2.0 -480.0 5.0 3.0 3.0 7.0 10.0 4.0 2.0 2.0 5.0 8.0 
10.0 2.0 10.0 4.0 3.0 6.0 7.0 8.0 10.0 9.0 7.0 9.0 9.0 2.0 4.0 2.0 0.0 1.0 6.0 5.0 5.0 1.0 7.0 7.0 1.0 6.0 7.0 10.0 2.0 5.0 2.0 7.0 0.0 2.0 3.0 3.0 1.0 4.0 7.0 3.0 6.0 4.0 3.0 5.0 2.0 7.0 7.0 0.0 7.0 10.0 8.0 3.0 10.0 3.0 8.0 7.0 4.0 5.0 9.0 0.0 8.0 0.0 3.0 8.0 5.0 5.0 1.0 0.0 9.0 9.0 6.0 5.0 6.0 7.0 1.0 0.0 2.0 7.0 10.0 5.0 3.0 4.0 6.0 8.0 5.0 -476.0 10.0 4.0 0.0 0.0 10.0 7.0 8.0 9.0 0.0 
0.0 6.0 9.0 1.0 2.0 8.0 8.0 7.0 7.0 4.0 10.0 3.0 10.0 4.0 6.0 9.0 3.0 2.0 6.0 10.0 3.0 4.0 2.0 5.0 8.0 6.0 3.0 7.0 10.0 6.0 10.0 0.0 8.0 0.0 6.0 5.0 1.0 7.0 7.0 1.0 5.0 9.0 6.0 6.0 5.0 6.0 7.0 4.0 1.0 3.0 4.0 10.0 8.0 1.0 10.0 10.0 7.0 3.0 4.0 8.0 9.0 6.0 4.0 10.0 2.0 10.0 4.0 10.0 7.0 5.0 5.0 6.0 6.0 2.0 1.0 0.0 4.0 5.0 1.0 4.0 0.0 8.0 4.0 9.0 3.0 10.0 -502.0 3.0 2.0 0.0 6.0 9.0 8.0 6.0 2.0 
10.0 10.0 6.0 9.0 0.0 2.0 5.0 9.0 10.0 10.0 8.0 7.0 0.0 7.0 1.0 1.0 2.0 3.0 10.0 10.0 0.0 9.0 1.0 5.0 3.0 8.0 8.0 2.0 4.0 1.0 5.0 5.0 0.0 8.0 7.0 9.0 2.0 9.0 10.0 2.0 9.0 9.0 0.0 5.0 0.0 7.0 6.0 5.0 8.0 1.0 9.0 7.0 1.0 7.0 3.0 6.0 2.0 0.0 4.0 0.0 8.0 9.0 0.0 0.0 5.0 3.0 2.0 5.0 3.0 5.0 8.0 10.0 7.0 5.0 9.0 1.0 9.0 3.0 7.0 0.0 10.0 3.0 5.0 0.0 3.0 4.0 3.0 -473.0 3.0 9.0 7.0 3.0 1.0 8.0 8.0 
10.0 6.0 1.0 3.0 5.0 3.0 9.0 1.0 8.0 4.0 6.0 3.0 3.0 2.0 0.0 6.0 9.0 4.0 1.0 8.0 6.0 1.0 4.0 10.0 1.0 2.0 3.0 7.0 0.0 1.0 3.0 4.0 6.0 9.0 8.0 2.0 0.0 1.0 4.0 8.0 3.0 1.0 6.0 7.0 1.0 0.0 8.0 1.0 10.0 8.0 8.0 0.0 6.0 10.0 1.0 8.0 7.0 6.0 4.0 8.0 3.0 3.0 9.0 7.0 7.0 2.0 5.0 5.0 10.0 7.0 1.0 5.0 1.0 10.0 2.0 5.0 1.0 5.0 6.0 5.0 3.0 9.0 2.0 4.0 7.0 0.0 2.0 3.0 -443.0 2.0 6.0 10.0 8.0 3.0 10.0 
0.0 3.0 3.0 5.0 1.0 4.0 6.0 1.0 8.0 6.0 7.0 0.0 6.0 2.0 5.0 9.0 9.0 7.0 1.0 5.0 6.0 6.0 2.0 2.0 9.0 8.0 6.0 10.0 2.0 6.0 9.0 6.0 5.0 7.0 5.0 2.0 5.0 5.0 6.0 4.0 9.0 4.0 1.0 3.0 0.0 3.0 1.0 10.0 5.0 8.0 9.0 4.0 8.0 3.0 1.0 4.0 8.0 3.0 8.0 9.0 5.0 4.0 1.0 7.0 3.0 6.0 2.0 8.0 5.0 3.0 2.0 10.0 1.0 0.0 6.0 7.0 8.0 3.0 0.0 6.0 9.0 2.0 7.0 8.0 10.0 0.0 0.0 9.0 2.0 -457.0 9.0 4.0 4.0 4.0 2.0 
6.0 0.0 3.0 6.0 8.0 10.0 1.0 3.0 0.0 9.0 1.0 9.0 0.0 10.0 2.0 10.0 2.0 5.0 0.0 9.0 1.0 7.0 0.0 7.0 5.0 3.0 2.0 10.0 0.0 7.0 10.0 5.0 3.0 9.0 6.0 2.0 9.0 4.0 9.0 4.0 7.0 1.0 10.0 9.0 4.0 2.0 1.0 10.0 3.0 8.0 9.0 4.0 2.0 9.0 8.0 0.0 0.0 4.0 4.0 10.0 2.0 4.0 3.0 8.0 4.0 0.0 3.0 10.0 10.0 8.0 6.0 3.0 5.0 2.0 2.0 8.0 5.0 2.0 4.0 5.0 10.0 10.0 5.0 0.0 4.0 10.0 6.0 7.0 6.0 9.0 -468.0 0.0 5.0 0.0 0.0 
4.0 0.0 1.0 1.0 10.0 9.0 10.0 4.0 6.0 0.0 3.0 4.0 10.0 4.0 2.0 9.0 5.0 10.0 9.0 4.0 0.0 8.0 4.0 1.0 7.0 7.0 0.0 7.0 6.0 5.0 5.0 8.0 9.0 10.0 0.0 4.0 8.0 9.0 4.0 5.0 2.0 0.0 1.0 2.0 10.0 1.0 0.0 5.0 1.0 9.0 6.0 3.0 9.0 9.0 4.0 4.0 8.0 4.0 3.0 10.0 5.0 0.0 10.0 10.0 2.0 3.0 0.0 6.0 8.0 1.0 4.0 3.0 9.0 1.0 9.0 8.0 5.0 9.0 5.0 8.0 4.0 10.0 9.0 7.0 2.0 7.0 9.0 3.0 10.0 4.0 0.0 -486.0 7.0 2.0 3.0 
6.0 0.0 9.0 5.0 4.0 4.0 0.0 7.0 1.0 0.0 6.0 7.0 5.0 8.0 8.0 2.0 2.0 7.0 5.0 0.0 3.0 7.0 3.0 0.0 9.0 0.0 6.0 5.0 3.0 3.0 5.0 2.0 8.0 10.0 5.0 2.0 10.0 9.0 6.0 0.0 6.0 6.0 9.0 0.0 8.0 4.0 1.0 5.0 2.0 10.0 1.0 4.0 9.0 3.0 8.0 2.0 1.0 4.0 5.0 10.0 0.0 7.0 2.0 7.0 3.0 1.0 4.0 3.0 3.0 5.0 6.0 8.0 4.0 2.0 8.0 1.0 1.0 5.0 0.0 10.0 8.0 5.0 9.0 6.0 2.0 8.0 8.0 1.0 8.0 4.0 5.0 7.0 -447.0 10.0 6.0 
2.0 0.0 0.0 6.0 0.0 0.0 1.0 3.0 2.0 3.0 2.0 1.0 6.0 7.0 2.0 4.0 2.0 10.0 5.0 10.0 7.0 0.0 2.0 2.0 10.0 0.0 0.0 6.0 2.0 7.0 5.0 1.0 2.0 5.0 6.0 10.0 4.0 4.0 4.0 10.0 7.0 4.0 8.0 8.0 0.0 7.0 7.0 8.0 6.0 9.0 9.0 4.0 10.0 1.0 7.0 8.0 7.0 1.0 8.0 5.0 3.0 2.0 1.0 4.0 6.0 8.0 5.0 10.0 5.0 5.0 7.0 1.0 8.0 3.0 6.0 0.0 9.0 6.0 1.0 3.0 6.0 0.0 7.0 0.0 5.0 9.0 6.0 8.0 3.0 4.0 0.0 2.0 10.0 -438.0 8.0 
5.0 0.0 1.0 10.0 9.0 6.0 3.0 10.0 5.0 4.0 4.0 0.0 3.0 5.0 5.0 8.0 0.0 2.0 4.0 0.0 9.0 8.0 8.0 10.0 0.0 10.0 7.0 7.0 8.0 4.0 7.0 3.0 6.0 2.0 5.0 4.0 8.0 6.0 0.0 6.0 6.0 9.0 2.0 9.0 8.0 4.0 10.0 6.0 1.0 3.0 6.0 4.0 10.0 5.0 0.0 0.0 3.0 5.0 7.0 1.0 10.0 0.0 6.0 10.0 2.0 8.0 7.0 4.0 6.0 6.0 3.0 1.0 2.0 2.0 8.0 1.0 1.0 6.0 5.0 0.0 2.0 8.0 7.0 7.0 8.0 0.0 2.0 8.0 10.0 2.0 0.0 3.0 6.0 8.0 -460.0 

